variable T equal 298.15
variable input_name string system
variable mol_size string 10
variable production equal 10000
units           real
neigh_modify    delay 10 every 1 check yes

atom_style      full
bond_style      harmonic

pair_style table spline 32802
special_bonds lj 0.0 1.0 1.0
boundary        p p p
read_data      trimmed_minimized.data
min_style       cg
pair_coeff 1 1 surf_mie.table CMCM 20.0
pair_coeff 1 2 surf_mie.table CMOA 20.0
pair_coeff 1 3 surf_mie.table CMW 20.0
pair_coeff 2 2 surf_mie.table OAOA 20.0
pair_coeff 2 3 surf_mie.table OAW 20.0
pair_coeff 3 3 surf_mie.table WW 20.0

group water type 3
group tail type 1 
group head type 2

minimize 1.0e-6 1.0e-8 20 20

# reset timestep to zero so fix averaging works properly!  <3
reset_timestep 0

fix MOM all momentum 10 linear 0 0 1

variable   Nevery              equal 20
variable   Nfreq               equal ${production}-10*${Nevery}
variable   Nrepeat             equal floor(${Nfreq}/${Nevery})-1

fix 1 all nvt temp ${T} ${T} 100.0
velocity all create ${T} 9194802 mom yes rot yes dist gaussian
velocity all zero linear
velocity all zero angular

compute cc1 head chunk/atom bin/1d z lower 1.0
fix cc2 head ave/chunk ${Nevery} ${Nrepeat} ${Nfreq} cc1 density/number file head.dat

compute cc3 tail chunk/atom bin/1d z lower 1.0
fix cc4 tail ave/chunk ${Nevery} ${Nrepeat} ${Nfreq} cc3 density/number file tail.dat

compute cc5 water chunk/atom bin/1d z lower 1.0
fix cc6 water ave/chunk ${Nevery} ${Nrepeat} ${Nfreq} cc5 density/number file water.dat

thermo          100
thermo_style custom step spcpu cpuremain etotal ke temp pe press pxx pyy pzz 

timestep        2.0

dump 10 all dcd 5000 production.dcd
dump_modify 10 unwrap yes

#run balance command every 10000 steps in z direction
fix 20 all balance 1000 1.0 shift z 100 1.0

compute PLANE all pressure/plane -150 150.0 1.0

fix PRESSURE all ave/time  ${Nevery} ${Nrepeat} ${Nfreq} c_PLANE[1] c_PLANE[2] c_PLANE[3] c_PLANE[4] mode vector file data.dat

run ${production}



















